Maximize
	custo: 60 d1 + 40 d2

Subject to
	30 p1 + 20 p2 <= 100
	2 p1 +3 p2 <= 120
	q1d1 + q1d2 - 15 p1 - 20 p2 = 0
	q2d1 + q2d2 - 15 p1 - 10 p2 = 0

	d1 - q1d1 - q1d2 = 0
	d2 - q2d1 - q2d2 = 0
	
	q1d1 - 0,65 d1 >= 0
	q1d2 - 0,55 d2 >= 0

	
End